c Reduced graph for mulsol.i.5 generated by Cyril Grelier
p edge 104 2121
e 1 2
e 1 4
e 1 5
e 1 6
e 1 7
e 1 8
e 1 12
e 1 13
e 1 14
e 1 18
e 1 19
e 1 20
e 1 21
e 1 23
e 1 24
e 1 27
e 1 29
e 1 30
e 1 33
e 1 34
e 1 36
e 1 37
e 1 39
e 1 40
e 1 41
e 1 42
e 1 43
e 1 44
e 1 50
e 1 51
e 1 57
e 1 61
e 1 62
e 1 64
e 1 73
e 1 74
e 1 80
e 1 81
e 1 83
e 1 85
e 1 86
e 1 94
e 1 95
e 1 96
e 1 98
e 1 100
e 1 101
e 1 102
e 1 103
e 2 4
e 2 5
e 2 6
e 2 7
e 2 8
e 2 9
e 2 13
e 2 14
e 2 18
e 2 19
e 2 20
e 2 21
e 2 23
e 2 24
e 2 27
e 2 29
e 2 30
e 2 33
e 2 34
e 2 36
e 2 37
e 2 40
e 2 41
e 2 42
e 2 43
e 2 44
e 2 45
e 2 47
e 2 50
e 2 51
e 2 57
e 2 61
e 2 62
e 2 64
e 2 73
e 2 74
e 2 75
e 2 83
e 2 84
e 2 85
e 2 94
e 2 95
e 2 98
e 2 100
e 2 101
e 2 102
e 2 103
e 3 10
e 3 12
e 3 26
e 3 28
e 3 31
e 3 33
e 3 35
e 3 39
e 3 46
e 3 49
e 3 52
e 3 53
e 3 56
e 3 58
e 3 60
e 3 62
e 3 63
e 3 65
e 3 67
e 3 68
e 3 69
e 3 70
e 3 71
e 3 72
e 3 76
e 3 77
e 3 78
e 3 80
e 3 81
e 3 82
e 3 86
e 3 87
e 3 88
e 3 89
e 3 90
e 3 91
e 3 92
e 3 93
e 3 96
e 3 97
e 3 99
e 3 104
e 4 5
e 4 6
e 4 7
e 4 8
e 4 13
e 4 14
e 4 18
e 4 19
e 4 20
e 4 21
e 4 23
e 4 24
e 4 27
e 4 29
e 4 30
e 4 33
e 4 34
e 4 36
e 4 37
e 4 40
e 4 41
e 4 42
e 4 43
e 4 44
e 4 50
e 4 51
e 4 57
e 4 62
e 4 64
e 4 73
e 4 74
e 4 80
e 4 83
e 4 85
e 4 94
e 4 95
e 4 98
e 4 100
e 4 101
e 5 6
e 5 7
e 5 8
e 5 13
e 5 14
e 5 18
e 5 19
e 5 20
e 5 21
e 5 23
e 5 24
e 5 27
e 5 29
e 5 30
e 5 33
e 5 34
e 5 36
e 5 37
e 5 40
e 5 41
e 5 42
e 5 43
e 5 44
e 5 50
e 5 51
e 5 57
e 5 62
e 5 64
e 5 73
e 5 74
e 5 80
e 5 83
e 5 85
e 5 94
e 5 95
e 5 98
e 5 100
e 5 101
e 6 7
e 6 18
e 6 19
e 6 20
e 6 23
e 6 24
e 6 27
e 6 33
e 6 34
e 6 40
e 6 41
e 6 42
e 6 43
e 6 50
e 6 51
e 6 57
e 6 62
e 6 64
e 6 73
e 6 74
e 6 80
e 6 83
e 6 85
e 6 94
e 6 98
e 6 100
e 6 101
e 7 18
e 7 19
e 7 20
e 7 23
e 7 24
e 7 27
e 7 33
e 7 34
e 7 40
e 7 41
e 7 42
e 7 43
e 7 50
e 7 51
e 7 57
e 7 62
e 7 64
e 7 73
e 7 74
e 7 80
e 7 83
e 7 85
e 7 94
e 7 98
e 7 100
e 7 101
e 8 18
e 8 19
e 8 20
e 8 23
e 8 24
e 8 27
e 8 33
e 8 34
e 8 40
e 8 41
e 8 42
e 8 43
e 8 50
e 8 51
e 8 57
e 8 62
e 8 64
e 8 73
e 8 74
e 8 80
e 8 83
e 8 94
e 8 95
e 8 98
e 8 100
e 8 101
e 9 12
e 9 18
e 9 19
e 9 20
e 9 26
e 9 33
e 9 34
e 9 39
e 9 49
e 9 50
e 9 51
e 9 60
e 9 62
e 9 64
e 9 67
e 9 71
e 9 73
e 9 80
e 9 81
e 9 82
e 9 86
e 9 87
e 9 92
e 9 93
e 9 96
e 9 97
e 9 98
e 9 100
e 9 101
e 10 12
e 10 26
e 10 33
e 10 35
e 10 39
e 10 49
e 10 52
e 10 56
e 10 60
e 10 62
e 10 63
e 10 67
e 10 68
e 10 71
e 10 72
e 10 80
e 10 81
e 10 82
e 10 86
e 10 87
e 10 88
e 10 89
e 10 90
e 10 92
e 10 93
e 10 96
e 10 97
e 10 99
e 11 12
e 11 16
e 11 26
e 11 33
e 11 39
e 11 49
e 11 60
e 11 62
e 11 63
e 11 67
e 11 71
e 11 72
e 11 80
e 11 81
e 11 82
e 11 86
e 11 87
e 11 92
e 11 93
e 11 96
e 11 97
e 12 15
e 12 16
e 12 17
e 12 22
e 12 25
e 12 26
e 12 28
e 12 31
e 12 32
e 12 35
e 12 38
e 12 39
e 12 40
e 12 41
e 12 42
e 12 45
e 12 46
e 12 47
e 12 48
e 12 49
e 12 52
e 12 53
e 12 54
e 12 55
e 12 56
e 12 58
e 12 59
e 12 60
e 12 61
e 12 63
e 12 65
e 12 66
e 12 67
e 12 68
e 12 69
e 12 70
e 12 71
e 12 72
e 12 75
e 12 76
e 12 77
e 12 78
e 12 79
e 12 80
e 12 81
e 12 82
e 12 83
e 12 84
e 12 86
e 12 87
e 12 88
e 12 89
e 12 90
e 12 91
e 12 92
e 12 93
e 12 96
e 12 97
e 12 99
e 12 102
e 12 103
e 12 104
e 13 18
e 13 19
e 13 20
e 13 21
e 13 23
e 13 24
e 13 27
e 13 33
e 13 34
e 13 40
e 13 41
e 13 42
e 13 43
e 13 50
e 13 51
e 13 57
e 13 62
e 13 64
e 13 73
e 13 74
e 13 80
e 13 83
e 13 94
e 13 98
e 13 100
e 13 101
e 14 18
e 14 19
e 14 20
e 14 23
e 14 24
e 14 27
e 14 29
e 14 33
e 14 34
e 14 40
e 14 41
e 14 42
e 14 43
e 14 50
e 14 51
e 14 57
e 14 62
e 14 64
e 14 73
e 14 74
e 14 80
e 14 83
e 14 94
e 14 98
e 14 100
e 14 101
e 15 22
e 15 26
e 15 33
e 15 39
e 15 49
e 15 55
e 15 60
e 15 62
e 15 63
e 15 67
e 15 71
e 15 72
e 15 80
e 15 81
e 15 82
e 15 86
e 15 87
e 15 92
e 15 93
e 15 96
e 15 97
e 16 26
e 16 33
e 16 39
e 16 49
e 16 60
e 16 62
e 16 63
e 16 67
e 16 71
e 16 72
e 16 80
e 16 81
e 16 82
e 16 86
e 16 87
e 16 92
e 16 93
e 16 96
e 16 97
e 17 25
e 17 26
e 17 33
e 17 38
e 17 39
e 17 49
e 17 60
e 17 62
e 17 67
e 17 71
e 17 80
e 17 81
e 17 82
e 17 86
e 17 87
e 17 92
e 17 93
e 17 96
e 17 97
e 18 19
e 18 20
e 18 21
e 18 23
e 18 24
e 18 27
e 18 29
e 18 30
e 18 33
e 18 34
e 18 36
e 18 37
e 18 40
e 18 41
e 18 42
e 18 43
e 18 44
e 18 45
e 18 50
e 18 51
e 18 57
e 18 61
e 18 62
e 18 64
e 18 73
e 18 74
e 18 75
e 18 83
e 18 84
e 18 85
e 18 94
e 18 95
e 18 98
e 18 100
e 18 101
e 18 102
e 18 103
e 19 20
e 19 21
e 19 23
e 19 24
e 19 27
e 19 29
e 19 30
e 19 33
e 19 34
e 19 36
e 19 37
e 19 40
e 19 41
e 19 42
e 19 43
e 19 44
e 19 50
e 19 51
e 19 57
e 19 61
e 19 62
e 19 64
e 19 73
e 19 74
e 19 83
e 19 85
e 19 94
e 19 95
e 19 98
e 19 100
e 19 101
e 19 102
e 19 103
e 20 21
e 20 23
e 20 24
e 20 27
e 20 29
e 20 30
e 20 33
e 20 34
e 20 36
e 20 37
e 20 40
e 20 41
e 20 42
e 20 43
e 20 44
e 20 50
e 20 51
e 20 57
e 20 61
e 20 62
e 20 64
e 20 73
e 20 74
e 20 83
e 20 85
e 20 94
e 20 95
e 20 98
e 20 100
e 20 101
e 20 102
e 20 103
e 21 23
e 21 24
e 21 27
e 21 33
e 21 34
e 21 40
e 21 41
e 21 42
e 21 43
e 21 50
e 21 51
e 21 57
e 21 62
e 21 64
e 21 73
e 21 74
e 21 80
e 21 83
e 21 94
e 21 98
e 21 100
e 21 101
e 22 26
e 22 32
e 22 33
e 22 39
e 22 48
e 22 49
e 22 55
e 22 60
e 22 62
e 22 63
e 22 67
e 22 71
e 22 72
e 22 80
e 22 81
e 22 82
e 22 86
e 22 87
e 22 88
e 22 92
e 22 93
e 22 96
e 22 97
e 22 99
e 23 24
e 23 27
e 23 29
e 23 30
e 23 33
e 23 34
e 23 36
e 23 37
e 23 40
e 23 41
e 23 42
e 23 43
e 23 44
e 23 50
e 23 51
e 23 57
e 23 61
e 23 62
e 23 64
e 23 73
e 23 74
e 23 83
e 23 85
e 23 94
e 23 95
e 23 98
e 23 100
e 23 101
e 23 102
e 23 103
e 24 27
e 24 29
e 24 30
e 24 33
e 24 34
e 24 36
e 24 37
e 24 40
e 24 41
e 24 42
e 24 43
e 24 44
e 24 50
e 24 51
e 24 57
e 24 62
e 24 64
e 24 73
e 24 74
e 24 80
e 24 83
e 24 85
e 24 94
e 24 95
e 24 98
e 24 100
e 24 101
e 25 26
e 25 33
e 25 38
e 25 39
e 25 49
e 25 60
e 25 62
e 25 67
e 25 71
e 25 80
e 25 81
e 25 82
e 25 86
e 25 87
e 25 92
e 25 93
e 25 96
e 25 97
e 26 28
e 26 31
e 26 32
e 26 35
e 26 38
e 26 39
e 26 45
e 26 46
e 26 47
e 26 48
e 26 49
e 26 52
e 26 53
e 26 54
e 26 55
e 26 56
e 26 58
e 26 59
e 26 60
e 26 63
e 26 65
e 26 66
e 26 67
e 26 68
e 26 69
e 26 70
e 26 71
e 26 72
e 26 75
e 26 76
e 26 77
e 26 78
e 26 79
e 26 80
e 26 81
e 26 82
e 26 84
e 26 86
e 26 87
e 26 88
e 26 89
e 26 90
e 26 91
e 26 92
e 26 93
e 26 96
e 26 97
e 26 99
e 26 104
e 27 29
e 27 30
e 27 33
e 27 34
e 27 36
e 27 37
e 27 40
e 27 41
e 27 42
e 27 43
e 27 44
e 27 50
e 27 51
e 27 57
e 27 62
e 27 64
e 27 73
e 27 74
e 27 80
e 27 83
e 27 85
e 27 94
e 27 95
e 27 98
e 27 100
e 27 101
e 28 33
e 28 35
e 28 39
e 28 49
e 28 52
e 28 53
e 28 56
e 28 60
e 28 62
e 28 63
e 28 67
e 28 68
e 28 71
e 28 72
e 28 80
e 28 81
e 28 82
e 28 86
e 28 87
e 28 88
e 28 89
e 28 90
e 28 91
e 28 92
e 28 93
e 28 96
e 28 97
e 28 99
e 29 33
e 29 34
e 29 40
e 29 41
e 29 42
e 29 43
e 29 50
e 29 51
e 29 57
e 29 62
e 29 64
e 29 73
e 29 74
e 29 80
e 29 83
e 29 94
e 29 98
e 29 100
e 29 101
e 30 33
e 30 34
e 30 37
e 30 40
e 30 41
e 30 42
e 30 43
e 30 50
e 30 51
e 30 57
e 30 62
e 30 64
e 30 73
e 30 74
e 30 80
e 30 83
e 30 94
e 30 98
e 30 100
e 30 101
e 31 33
e 31 35
e 31 39
e 31 49
e 31 52
e 31 56
e 31 60
e 31 62
e 31 63
e 31 67
e 31 68
e 31 71
e 31 72
e 31 77
e 31 80
e 31 81
e 31 82
e 31 86
e 31 87
e 31 88
e 31 89
e 31 90
e 31 92
e 31 93
e 31 96
e 31 97
e 31 99
e 32 33
e 32 39
e 32 48
e 32 49
e 32 56
e 32 60
e 32 62
e 32 63
e 32 67
e 32 71
e 32 72
e 32 80
e 32 81
e 32 82
e 32 86
e 32 87
e 32 88
e 32 92
e 32 93
e 32 96
e 32 97
e 32 99
e 33 34
e 33 35
e 33 36
e 33 37
e 33 38
e 33 40
e 33 41
e 33 42
e 33 43
e 33 44
e 33 45
e 33 46
e 33 47
e 33 48
e 33 50
e 33 51
e 33 52
e 33 53
e 33 54
e 33 55
e 33 56
e 33 57
e 33 58
e 33 59
e 33 61
e 33 62
e 33 63
e 33 64
e 33 65
e 33 66
e 33 68
e 33 69
e 33 70
e 33 72
e 33 73
e 33 74
e 33 75
e 33 76
e 33 77
e 33 78
e 33 79
e 33 83
e 33 84
e 33 85
e 33 88
e 33 89
e 33 90
e 33 91
e 33 94
e 33 95
e 33 98
e 33 99
e 33 100
e 33 101
e 33 102
e 33 103
e 33 104
e 34 36
e 34 37
e 34 40
e 34 41
e 34 42
e 34 43
e 34 44
e 34 45
e 34 47
e 34 50
e 34 51
e 34 57
e 34 59
e 34 61
e 34 62
e 34 64
e 34 66
e 34 73
e 34 74
e 34 75
e 34 79
e 34 83
e 34 84
e 34 85
e 34 94
e 34 95
e 34 98
e 34 100
e 34 101
e 34 102
e 34 103
e 35 39
e 35 46
e 35 49
e 35 52
e 35 53
e 35 56
e 35 58
e 35 60
e 35 62
e 35 63
e 35 67
e 35 68
e 35 69
e 35 70
e 35 71
e 35 72
e 35 76
e 35 77
e 35 78
e 35 80
e 35 81
e 35 82
e 35 86
e 35 87
e 35 88
e 35 89
e 35 90
e 35 91
e 35 92
e 35 93
e 35 96
e 35 97
e 35 99
e 35 104
e 36 40
e 36 41
e 36 42
e 36 43
e 36 44
e 36 50
e 36 51
e 36 57
e 36 62
e 36 64
e 36 73
e 36 74
e 36 80
e 36 83
e 36 94
e 36 95
e 36 98
e 36 100
e 36 101
e 37 40
e 37 41
e 37 42
e 37 43
e 37 50
e 37 51
e 37 57
e 37 62
e 37 64
e 37 73
e 37 74
e 37 80
e 37 83
e 37 94
e 37 98
e 37 100
e 37 101
e 38 39
e 38 49
e 38 60
e 38 62
e 38 67
e 38 71
e 38 80
e 38 81
e 38 82
e 38 86
e 38 87
e 38 92
e 38 93
e 38 96
e 38 97
e 39 40
e 39 41
e 39 45
e 39 46
e 39 47
e 39 48
e 39 49
e 39 52
e 39 53
e 39 54
e 39 55
e 39 56
e 39 58
e 39 59
e 39 60
e 39 61
e 39 63
e 39 65
e 39 66
e 39 67
e 39 68
e 39 69
e 39 70
e 39 71
e 39 72
e 39 75
e 39 76
e 39 77
e 39 78
e 39 79
e 39 80
e 39 81
e 39 82
e 39 84
e 39 86
e 39 87
e 39 88
e 39 89
e 39 90
e 39 91
e 39 92
e 39 93
e 39 96
e 39 97
e 39 99
e 39 102
e 39 103
e 39 104
e 40 41
e 40 42
e 40 43
e 40 44
e 40 50
e 40 51
e 40 57
e 40 61
e 40 62
e 40 64
e 40 73
e 40 74
e 40 80
e 40 83
e 40 85
e 40 86
e 40 94
e 40 95
e 40 96
e 40 98
e 40 100
e 40 101
e 40 102
e 40 103
e 41 42
e 41 43
e 41 44
e 41 50
e 41 51
e 41 57
e 41 61
e 41 62
e 41 64
e 41 73
e 41 74
e 41 80
e 41 83
e 41 85
e 41 86
e 41 94
e 41 95
e 41 98
e 41 100
e 41 101
e 41 102
e 41 103
e 42 43
e 42 44
e 42 50
e 42 51
e 42 57
e 42 61
e 42 62
e 42 64
e 42 73
e 42 74
e 42 80
e 42 83
e 42 85
e 42 94
e 42 95
e 42 98
e 42 100
e 42 101
e 42 102
e 42 103
e 43 44
e 43 50
e 43 51
e 43 57
e 43 61
e 43 62
e 43 64
e 43 73
e 43 74
e 43 80
e 43 83
e 43 85
e 43 94
e 43 95
e 43 98
e 43 100
e 43 101
e 43 102
e 43 103
e 44 50
e 44 51
e 44 57
e 44 62
e 44 64
e 44 73
e 44 74
e 44 80
e 44 83
e 44 94
e 44 95
e 44 98
e 44 100
e 44 101
e 45 47
e 45 49
e 45 54
e 45 59
e 45 60
e 45 62
e 45 66
e 45 67
e 45 71
e 45 73
e 45 75
e 45 79
e 45 80
e 45 81
e 45 82
e 45 84
e 45 86
e 45 87
e 45 92
e 45 93
e 45 96
e 45 97
e 45 98
e 46 49
e 46 52
e 46 56
e 46 60
e 46 62
e 46 63
e 46 67
e 46 68
e 46 71
e 46 72
e 46 78
e 46 80
e 46 81
e 46 82
e 46 86
e 46 87
e 46 88
e 46 89
e 46 90
e 46 92
e 46 93
e 46 96
e 46 97
e 46 99
e 47 49
e 47 54
e 47 59
e 47 60
e 47 62
e 47 66
e 47 67
e 47 71
e 47 73
e 47 75
e 47 79
e 47 80
e 47 81
e 47 82
e 47 84
e 47 86
e 47 87
e 47 92
e 47 93
e 47 96
e 47 97
e 47 98
e 48 49
e 48 55
e 48 56
e 48 60
e 48 62
e 48 63
e 48 65
e 48 67
e 48 68
e 48 71
e 48 72
e 48 80
e 48 81
e 48 82
e 48 86
e 48 87
e 48 88
e 48 92
e 48 93
e 48 96
e 48 97
e 48 99
e 49 52
e 49 53
e 49 54
e 49 55
e 49 56
e 49 58
e 49 59
e 49 60
e 49 63
e 49 65
e 49 66
e 49 67
e 49 68
e 49 69
e 49 70
e 49 71
e 49 72
e 49 75
e 49 76
e 49 77
e 49 78
e 49 79
e 49 80
e 49 81
e 49 82
e 49 84
e 49 86
e 49 87
e 49 88
e 49 89
e 49 90
e 49 91
e 49 92
e 49 93
e 49 96
e 49 97
e 49 99
e 49 104
e 50 51
e 50 57
e 50 61
e 50 62
e 50 64
e 50 73
e 50 74
e 50 83
e 50 85
e 50 94
e 50 95
e 50 98
e 50 100
e 50 101
e 50 102
e 50 103
e 51 57
e 51 61
e 51 62
e 51 64
e 51 73
e 51 74
e 51 83
e 51 85
e 51 94
e 51 95
e 51 98
e 51 100
e 51 101
e 51 102
e 51 103
e 52 53
e 52 56
e 52 58
e 52 60
e 52 62
e 52 63
e 52 65
e 52 67
e 52 68
e 52 69
e 52 70
e 52 71
e 52 72
e 52 76
e 52 77
e 52 78
e 52 80
e 52 81
e 52 82
e 52 86
e 52 87
e 52 88
e 52 89
e 52 90
e 52 91
e 52 92
e 52 93
e 52 96
e 52 97
e 52 99
e 52 104
e 53 56
e 53 60
e 53 62
e 53 63
e 53 67
e 53 68
e 53 71
e 53 72
e 53 80
e 53 81
e 53 82
e 53 86
e 53 87
e 53 88
e 53 89
e 53 90
e 53 91
e 53 92
e 53 93
e 53 96
e 53 97
e 53 99
e 54 59
e 54 60
e 54 62
e 54 66
e 54 67
e 54 71
e 54 75
e 54 79
e 54 80
e 54 81
e 54 82
e 54 84
e 54 86
e 54 87
e 54 92
e 54 93
e 54 96
e 54 97
e 55 60
e 55 62
e 55 63
e 55 67
e 55 71
e 55 72
e 55 80
e 55 81
e 55 82
e 55 86
e 55 87
e 55 92
e 55 93
e 55 96
e 55 97
e 55 99
e 56 58
e 56 60
e 56 62
e 56 63
e 56 65
e 56 67
e 56 68
e 56 69
e 56 70
e 56 71
e 56 72
e 56 76
e 56 77
e 56 78
e 56 80
e 56 81
e 56 82
e 56 86
e 56 87
e 56 88
e 56 89
e 56 90
e 56 91
e 56 92
e 56 93
e 56 96
e 56 97
e 56 99
e 56 104
e 57 61
e 57 62
e 57 64
e 57 73
e 57 74
e 57 83
e 57 85
e 57 94
e 57 95
e 57 98
e 57 100
e 57 101
e 57 102
e 57 103
e 58 60
e 58 62
e 58 63
e 58 67
e 58 68
e 58 71
e 58 72
e 58 76
e 58 80
e 58 81
e 58 82
e 58 86
e 58 87
e 58 88
e 58 89
e 58 90
e 58 92
e 58 93
e 58 96
e 58 97
e 58 99
e 58 104
e 59 60
e 59 62
e 59 66
e 59 67
e 59 71
e 59 75
e 59 79
e 59 80
e 59 81
e 59 82
e 59 84
e 59 86
e 59 87
e 59 92
e 59 93
e 59 96
e 59 97
e 59 98
e 60 61
e 60 63
e 60 65
e 60 66
e 60 67
e 60 68
e 60 69
e 60 70
e 60 71
e 60 72
e 60 75
e 60 76
e 60 77
e 60 78
e 60 79
e 60 80
e 60 81
e 60 82
e 60 84
e 60 86
e 60 87
e 60 88
e 60 89
e 60 90
e 60 91
e 60 92
e 60 93
e 60 96
e 60 97
e 60 99
e 60 102
e 60 104
e 61 62
e 61 64
e 61 67
e 61 73
e 61 80
e 61 81
e 61 82
e 61 83
e 61 86
e 61 96
e 61 98
e 61 100
e 61 101
e 61 102
e 61 103
e 62 63
e 62 64
e 62 65
e 62 66
e 62 68
e 62 69
e 62 70
e 62 72
e 62 73
e 62 74
e 62 75
e 62 76
e 62 77
e 62 78
e 62 79
e 62 83
e 62 84
e 62 85
e 62 88
e 62 89
e 62 90
e 62 91
e 62 94
e 62 95
e 62 98
e 62 99
e 62 100
e 62 101
e 62 102
e 62 103
e 62 104
e 63 65
e 63 67
e 63 68
e 63 69
e 63 70
e 63 71
e 63 72
e 63 76
e 63 77
e 63 78
e 63 80
e 63 81
e 63 82
e 63 86
e 63 87
e 63 88
e 63 89
e 63 90
e 63 91
e 63 92
e 63 93
e 63 96
e 63 97
e 63 99
e 63 104
e 64 73
e 64 74
e 64 75
e 64 83
e 64 84
e 64 85
e 64 94
e 64 95
e 64 98
e 64 100
e 64 101
e 64 102
e 64 103
e 65 67
e 65 68
e 65 71
e 65 72
e 65 80
e 65 81
e 65 82
e 65 86
e 65 87
e 65 88
e 65 89
e 65 90
e 65 92
e 65 93
e 65 96
e 65 97
e 65 99
e 66 67
e 66 71
e 66 75
e 66 79
e 66 80
e 66 81
e 66 82
e 66 84
e 66 86
e 66 87
e 66 92
e 66 93
e 66 96
e 66 97
e 67 68
e 67 69
e 67 70
e 67 71
e 67 72
e 67 75
e 67 76
e 67 77
e 67 78
e 67 79
e 67 80
e 67 81
e 67 82
e 67 84
e 67 86
e 67 87
e 67 88
e 67 89
e 67 90
e 67 91
e 67 92
e 67 93
e 67 96
e 67 97
e 67 99
e 67 104
e 68 69
e 68 70
e 68 71
e 68 72
e 68 76
e 68 77
e 68 78
e 68 80
e 68 81
e 68 82
e 68 86
e 68 87
e 68 88
e 68 89
e 68 90
e 68 91
e 68 92
e 68 93
e 68 96
e 68 97
e 68 99
e 68 104
e 69 70
e 69 71
e 69 72
e 69 76
e 69 80
e 69 81
e 69 82
e 69 86
e 69 87
e 69 88
e 69 89
e 69 90
e 69 92
e 69 93
e 69 96
e 69 97
e 69 99
e 70 71
e 70 72
e 70 76
e 70 80
e 70 81
e 70 82
e 70 86
e 70 87
e 70 88
e 70 89
e 70 90
e 70 92
e 70 93
e 70 96
e 70 97
e 70 99
e 71 72
e 71 75
e 71 76
e 71 77
e 71 78
e 71 79
e 71 80
e 71 81
e 71 82
e 71 84
e 71 86
e 71 87
e 71 88
e 71 89
e 71 90
e 71 91
e 71 92
e 71 93
e 71 96
e 71 97
e 71 99
e 71 104
e 72 76
e 72 77
e 72 78
e 72 80
e 72 81
e 72 82
e 72 86
e 72 87
e 72 88
e 72 89
e 72 90
e 72 91
e 72 92
e 72 93
e 72 96
e 72 97
e 72 99
e 72 100
e 72 104
e 73 74
e 73 75
e 73 79
e 73 83
e 73 84
e 73 85
e 73 94
e 73 95
e 73 98
e 73 100
e 73 101
e 73 102
e 73 103
e 74 80
e 74 83
e 74 85
e 74 94
e 74 95
e 74 98
e 74 100
e 74 101
e 75 79
e 75 80
e 75 81
e 75 82
e 75 84
e 75 86
e 75 87
e 75 92
e 75 93
e 75 96
e 75 97
e 75 98
e 76 80
e 76 81
e 76 82
e 76 86
e 76 87
e 76 88
e 76 89
e 76 90
e 76 92
e 76 93
e 76 96
e 76 97
e 76 99
e 76 104
e 77 80
e 77 81
e 77 82
e 77 86
e 77 87
e 77 88
e 77 89
e 77 90
e 77 92
e 77 93
e 77 96
e 77 97
e 77 99
e 78 80
e 78 81
e 78 82
e 78 86
e 78 87
e 78 88
e 78 89
e 78 90
e 78 92
e 78 93
e 78 96
e 78 97
e 78 99
e 79 80
e 79 81
e 79 82
e 79 84
e 79 86
e 79 87
e 79 92
e 79 93
e 79 96
e 79 97
e 79 98
e 80 81
e 80 82
e 80 83
e 80 84
e 80 85
e 80 86
e 80 87
e 80 88
e 80 89
e 80 90
e 80 91
e 80 92
e 80 93
e 80 94
e 80 95
e 80 96
e 80 97
e 80 99
e 80 102
e 80 103
e 80 104
e 81 82
e 81 84
e 81 86
e 81 87
e 81 88
e 81 89
e 81 90
e 81 91
e 81 92
e 81 93
e 81 96
e 81 97
e 81 99
e 81 102
e 81 103
e 81 104
e 82 84
e 82 86
e 82 87
e 82 88
e 82 89
e 82 90
e 82 91
e 82 92
e 82 93
e 82 96
e 82 97
e 82 99
e 82 102
e 82 103
e 82 104
e 83 85
e 83 86
e 83 94
e 83 95
e 83 98
e 83 100
e 83 101
e 83 102
e 83 103
e 84 86
e 84 87
e 84 92
e 84 93
e 84 96
e 84 97
e 84 98
e 84 101
e 85 94
e 85 98
e 85 100
e 85 101
e 86 87
e 86 88
e 86 89
e 86 90
e 86 91
e 86 92
e 86 93
e 86 96
e 86 97
e 86 99
e 86 102
e 86 103
e 86 104
e 87 88
e 87 89
e 87 90
e 87 91
e 87 92
e 87 93
e 87 96
e 87 97
e 87 99
e 87 104
e 88 89
e 88 90
e 88 91
e 88 92
e 88 93
e 88 96
e 88 97
e 88 99
e 88 104
e 89 90
e 89 91
e 89 92
e 89 93
e 89 96
e 89 97
e 89 99
e 89 104
e 90 91
e 90 92
e 90 93
e 90 96
e 90 97
e 90 99
e 90 104
e 91 92
e 91 93
e 91 96
e 91 97
e 91 99
e 92 93
e 92 96
e 92 97
e 92 99
e 92 104
e 93 96
e 93 97
e 93 99
e 93 104
e 94 95
e 94 98
e 94 100
e 94 101
e 95 98
e 95 100
e 95 101
e 96 97
e 96 99
e 96 102
e 96 103
e 96 104
e 97 99
e 97 104
e 98 100
e 98 101
e 98 102
e 98 103
e 99 104
e 100 101
e 100 102
e 100 103
e 101 102
e 101 103
e 102 103
